c parsing input formula with 42387 variables and 183641 clauses
c finished parsing
c detected empty clause; start verification via backward checking
c 53774 of 183641 clauses in core
c 28519 of 102865 lemmas in core using 718553 resolution steps
c 0 RAT lemmas in core; 0 redundant literals in core lemmas
s VERIFIED
c verification time: 1.117 seconds
